# Objective value = 2.9173414817548439e+02
x[0] 1
x[1] 0
x[2] 0
x[3] 0
x[4] 1
x[5] 0
x[6] 0
x[7] 1
x[8] 0
x[9] 1
x[10] 0
x[11] 0
x[12] 1
x[13] 1
x[14] 1
x[15] 1
x[16] 1
x[17] 1
x[18] 1
x[19] 0
x[20] 1
x[21] 0
x[22] 1
x[23] 1
x[24] 1
x[25] 1
x[26] 0
x[27] 1
x[28] 1
x[29] 0
x[30] 1
x[31] 1
x[32] 1
x[33] 0
x[34] 1
x[35] 0
x[36] 0
x[37] 1
x[38] 0
x[39] 1
x[40] 0
x[41] 0
x[42] 1
x[43] 0
x[44] 0
x[45] 1
x[46] 0
x[47] 0
x[48] 1
x[49] 1
x[50] 1
x[51] 1
x[52] 0
x[53] 0
x[54] 1
x[55] 0
x[56] 1
x[57] 1
x[58] 0
x[59] 0
x[60] 0
x[61] 0
x[62] 0
x[63] 1
x[64] 1
x[65] 1
x[66] 1
x[67] 1
x[68] 0
x[69] 0
x[70] 1
x[71] 1
x[72] 0
x[73] 1
x[74] 0
x[75] 0
x[76] 0
x[77] 0
x[78] 0
x[79] 0
x[80] 0
x[81] 1
x[82] 0
x[83] 0
x[84] 0
x[85] 1
x[86] 0
x[87] 1
x[88] 1
x[89] 0
x[90] 1
x[91] 1
x[92] 0
x[93] 0
x[94] 0
x[95] 1
x[96] 1
x[97] 1
x[98] 1
x[99] 1
x[100] 0
x[101] 1
x[102] 0
x[103] 0
x[104] 1
x[105] 1
x[106] 1
x[107] 0
x[108] 1
x[109] 1
x[110] 0
x[111] 0
x[112] 1
x[113] 1
x[114] 0
x[115] 0
x[116] 1
x[117] 1
x[118] 1
x[119] 0
x[120] 0
x[121] 0
x[122] 1
x[123] 1
x[124] 0
x[125] 1
x[126] 1
x[127] 1
x[128] 1
x[129] 0
x[130] 0
x[131] 1
x[132] 1
x[133] 1
x[134] 0
x[135] 1
x[136] 0
x[137] 0
x[138] 1
x[139] 1
x[140] 1
x[141] 0
x[142] 1
x[143] 0
x[144] 0
x[145] 1
x[146] 0
x[147] 0
x[148] 1
x[149] 1
x[150] 1
x[151] 0
x[152] 1
x[153] 0
x[154] 1
x[155] 0
x[156] 0
x[157] 0
x[158] 0
x[159] 1
x[160] 0
x[161] 1
x[162] 1
x[163] 1
x[164] 1
x[165] 1
x[166] 0
x[167] 1
x[168] 0
x[169] 1
x[170] 0
x[171] 0
x[172] 0
x[173] 0
x[174] 0
x[175] 0
x[176] 0
x[177] 1
x[178] 1
x[179] 1
x[180] 0
x[181] 0
x[182] 1
x[183] 0
x[184] 0
x[185] 1
x[186] 1
x[187] 1
x[188] 0
x[189] 0
x[190] 1
x[191] 1
x[192] 1
x[193] 1
x[194] 0
x[195] 1
x[196] 1
x[197] 1
x[198] 0
x[199] 1
x[200] 1
x[201] 1
x[202] 1
x[203] 1
x[204] 0
x[205] 1
x[206] 1
x[207] 0
x[208] 0
x[209] 0
x[210] 1
x[211] 1
x[212] 0
x[213] 0
x[214] 1
x[215] 0
x[216] 0
x[217] 1
x[218] 0
x[219] 0
x[220] 0
x[221] 1
x[222] 0
x[223] 1
x[224] 1
x[225] 0
x[226] 1
x[227] 0
x[228] 0
x[229] 1
x[230] 1
x[231] 0
x[232] 0
x[233] 1
x[234] 1
x[235] 0
x[236] 0
x[237] 1
x[238] 1
x[239] 0
x[240] 1
x[241] 1
x[242] 1
x[243] 1
x[244] 0
x[245] 0
x[246] 1
x[247] 0
x[248] 1
x[249] 0
x[250] 0
x[251] 0
x[252] 1
x[253] 1
x[254] 1
x[255] 0
x[256] 0
x[257] 1
x[258] 1
x[259] 1
x[260] 0
x[261] 0
x[262] 0
x[263] 0
x[264] 0
x[265] 0
x[266] 0
x[267] 0
x[268] 1
x[269] 0
x[270] 1
x[271] 1
x[272] 0
x[273] 0
x[274] 1
x[275] 1
x[276] 0
x[277] 1
x[278] 0
x[279] 0
x[280] 1
x[281] 0
x[282] 0
x[283] 1
x[284] 0
x[285] 1
x[286] 1
x[287] 1
x[288] 0
x[289] 0
x[290] 1
x[291] 1
x[292] 0
x[293] 0
x[294] 0
x[295] 0
x[296] 1
x[297] 1
x[298] 0
x[299] 1
x[300] 0
x[301] 1
x[302] 0
x[303] 1
x[304] 1
x[305] 1
x[306] 1
x[307] 0
x[308] 0
x[309] 0
x[310] 1
x[311] 0
x[312] 0
x[313] 1
x[314] 1
x[315] 1
x[316] 0
x[317] 0
x[318] 0
x[319] 0
x[320] 0
x[321] 1
x[322] 0
x[323] 0
x[324] 0
x[325] 0
x[326] 1
x[327] 0
x[328] 1
x[329] 0
x[330] 0
x[331] 1
x[332] 0
x[333] 1
x[334] 1
x[335] 0
x[336] 1
x[337] 0
x[338] 1
x[339] 1
x[340] 0
x[341] 1
x[342] 0
x[343] 0
x[344] 1
x[345] 1
x[346] 0
x[347] 0
x[348] 0
x[349] 0
x[350] 0
x[351] 0
x[352] 1
x[353] 0
x[354] 0
x[355] 0
x[356] 0
x[357] 1
x[358] 0
x[359] 1
x[360] 1
x[361] 1
x[362] 0
x[363] 1
x[364] 0
x[365] 0
x[366] 1
x[367] 0
x[368] 0
x[369] 0
x[370] 1
x[371] 0
x[372] 0
x[373] 0
x[374] 1
x[375] 0
x[376] 0
x[377] 0
x[378] 0
x[379] 0
x[380] 1
x[381] 0
x[382] 0
x[383] 0
x[384] 1
x[385] 0
x[386] 0
x[387] 1
x[388] 1
x[389] 0
x[390] 1
x[391] 0
x[392] 1
x[393] 0
x[394] 0
x[395] 0
x[396] 1
x[397] 1
x[398] 0
x[399] 1
x[400] 1
x[401] 0
x[402] 1
x[403] 0
x[404] 0
x[405] 0
x[406] 1
x[407] 1
x[408] 1
x[409] 0
x[410] 0
x[411] 1
x[412] 0
x[413] 1
x[414] 1
x[415] 0
x[416] 0
x[417] 0
x[418] 1
x[419] 1
x[420] 0
x[421] 0
x[422] 1
x[423] 0
x[424] 0
x[425] 0
x[426] 0
x[427] 1
x[428] 1
x[429] 0
x[430] 0
x[431] 1
x[432] 1
x[433] 0
x[434] 1
x[435] 1
x[436] 1
x[437] 1
x[438] 1
x[439] 0
x[440] 1
x[441] 1
x[442] 1
x[443] 0
x[444] 1
x[445] 1
x[446] 0
x[447] 1
x[448] 0
x[449] 0
x[450] 0
x[451] 0
x[452] 0
x[453] 1
x[454] 0
x[455] 0
x[456] 0
x[457] 0
x[458] 0
x[459] 1
x[460] 0
x[461] 1
x[462] 1
x[463] 0
x[464] 0
x[465] 0
x[466] 1
x[467] 0
x[468] 1
x[469] 0
x[470] 1
x[471] 1
x[472] 1
x[473] 1
x[474] 0
x[475] 0
x[476] 0
x[477] 1
x[478] 1
x[479] 0
x[480] 0
x[481] 0
x[482] 0
x[483] 1
x[484] 0
x[485] 1
x[486] 0
x[487] 0
x[488] 1
x[489] 1
x[490] 0
x[491] 1
x[492] 0
x[493] 1
x[494] 0
x[495] 1
x[496] 0
x[497] 1
x[498] 0
x[499] 1
x[500] 1
x[501] 0
x[502] 1
x[503] 0
x[504] 1
x[505] 0
x[506] 0
x[507] 0
x[508] 1
x[509] 0
x[510] 0
x[511] 1
x[512] 1
x[513] 1
x[514] 1
x[515] 1
x[516] 1
x[517] 1
x[518] 0
x[519] 1
x[520] 1
x[521] 1
x[522] 1
x[523] 1
x[524] 0
x[525] 0
x[526] 1
x[527] 1
x[528] 1
x[529] 0
x[530] 0
x[531] 0
x[532] 1
x[533] 1
x[534] 0
x[535] 1
x[536] 0
x[537] 0
x[538] 0
x[539] 1
x[540] 1
x[541] 1
x[542] 1
x[543] 0
x[544] 0
x[545] 1
x[546] 0
x[547] 0
x[548] 1
x[549] 0
x[550] 1
x[551] 1
x[552] 0
x[553] 1
x[554] 0
x[555] 0
x[556] 1
x[557] 1
x[558] 0
x[559] 0
x[560] 0
x[561] 1
x[562] 1
x[563] 0
x[564] 1
x[565] 1
x[566] 1
x[567] 0
x[568] 0
x[569] 1
x[570] 0
x[571] 1
x[572] 0
x[573] 1
x[574] 1
x[575] 0
x[576] 1
x[577] 0
x[578] 0
x[579] 1
x[580] 1
x[581] 0
x[582] 1
x[583] 1
x[584] 0
x[585] 0
x[586] 0
x[587] 1
x[588] 0
x[589] 0
x[590] 0
x[591] 1
x[592] 1
x[593] 1
x[594] 0
x[595] 1
x[596] 0
x[597] 1
x[598] 1
x[599] 0
x[600] 1
x[601] 0
x[602] 0
x[603] 1
x[604] 0
x[605] 1
x[606] 1
x[607] 0
x[608] 0
x[609] 0
x[610] 1
x[611] 0
x[612] 1
x[613] 1
x[614] 0
x[615] 0
x[616] 0
x[617] 1
x[618] 0
x[619] 0
x[620] 0
x[621] 1
x[622] 1
x[623] 0
x[624] 0
x[625] 0
x[626] 0
x[627] 0
x[628] 0
x[629] 0
x[630] 0
x[631] 0
x[632] 0
x[633] 1
x[634] 0
x[635] 0
x[636] 0
x[637] 1
x[638] 1
x[639] 0
x[640] 1
x[641] 0
x[642] 1
x[643] 0
x[644] 0
x[645] 1
x[646] 1
x[647] 0
x[648] 1
x[649] 1
x[650] 0
x[651] 0
x[652] 1
x[653] 0
x[654] 0
x[655] 0
x[656] 0
x[657] 1
x[658] 1
x[659] 1
x[660] 0
x[661] 1
x[662] 0
x[663] 1
x[664] 0
x[665] 1
x[666] 1
x[667] 1
x[668] 1
x[669] 1
x[670] 1
x[671] 1
x[672] 0
x[673] 1
x[674] 1
x[675] 1
x[676] 0
x[677] 1
x[678] 1
x[679] 1
x[680] 0
x[681] 0
x[682] 1
x[683] 1
x[684] 0
x[685] 0
x[686] 1
x[687] 1
x[688] 0
x[689] 1
x[690] 0
x[691] 1
x[692] 1
x[693] 1
x[694] 0
x[695] 1
x[696] 0
x[697] 0
x[698] 0
x[699] 0
x[700] 0
x[701] 0
x[702] 1
x[703] 0
x[704] 0
x[705] 0
x[706] 1
x[707] 1
x[708] 1
x[709] 0
x[710] 0
x[711] 1
x[712] 0
x[713] 1
x[714] 1
x[715] 1
x[716] 1
x[717] 0
x[718] 1
x[719] 0
x[720] 0
x[721] 0
x[722] 1
x[723] 1
x[724] 1
x[725] 0
x[726] 0
x[727] 1
x[728] 0
x[729] 1
x[730] 1
x[731] 1
x[732] 0
x[733] 1
x[734] 0
x[735] 1
x[736] 1
x[737] 1
x[738] 1
x[739] 0
x[740] 0
x[741] 0
x[742] 1
x[743] 1
x[744] 0
x[745] 0
x[746] 1
x[747] 1
x[748] 0
x[749] 0
x[750] 0
x[751] 1
x[752] 1
x[753] 0
x[754] 1
x[755] 0
x[756] 0
x[757] 0
x[758] 0
x[759] 0
x[760] 0
x[761] 1
x[762] 1
x[763] 1
x[764] 1
x[765] 0
x[766] 0
x[767] 0
x[768] 0
x[769] 1
x[770] 1
x[771] 1
x[772] 0
x[773] 0
x[774] 0
x[775] 1
x[776] 1
x[777] 0
x[778] 0
x[779] 1
x[780] 1
x[781] 1
x[782] 1
x[783] 0
x[784] 1
x[785] 1
x[786] 0
x[787] 1
x[788] 0
x[789] 0
x[790] 0
x[791] 0
x[792] 1
x[793] 0
x[794] 0
x[795] 0
x[796] 1
x[797] 1
x[798] 1
x[799] 1
x[800] 1
x[801] 1
x[802] 0
x[803] 1
x[804] 1
x[805] 1
x[806] 0
x[807] 0
x[808] 1
x[809] 0
x[810] 1
x[811] 0
x[812] 0
x[813] 1
x[814] 0
x[815] 1
x[816] 1
x[817] 0
x[818] 1
x[819] 1
x[820] 0
x[821] 0
x[822] 0
x[823] 1
x[824] 0
x[825] 1
x[826] 1
x[827] 0
x[828] 0
x[829] 0
x[830] 1
x[831] 1
x[832] 0
x[833] 1
x[834] 0
x[835] 1
x[836] 1
x[837] 0
x[838] 0
x[839] 0
x[840] 1
x[841] 1
x[842] 1
x[843] 0
x[844] 0
x[845] 0
x[846] 1
x[847] 0
x[848] 0
x[849] 0
x[850] 0
x[851] 0
x[852] 1
x[853] 0
x[854] 0
x[855] 1
x[856] 1
x[857] 0
x[858] 0
x[859] 0
x[860] 0
x[861] 1
x[862] 0
x[863] 0
x[864] 1
x[865] 1
x[866] 1
x[867] 1
x[868] 0
x[869] 0
x[870] 1
x[871] 0
x[872] 1
x[873] 1
x[874] 0
x[875] 0
x[876] 1
x[877] 0
x[878] 0
x[879] 0
x[880] 1
x[881] 0
x[882] 1
x[883] 0
x[884] 0
x[885] 1
x[886] 0
x[887] 1
x[888] 0
x[889] 0
x[890] 0
x[891] 1
x[892] 1
x[893] 0
x[894] 0
x[895] 0
x[896] 0
x[897] 1
x[898] 1
x[899] 0
x[900] 1
x[901] 0
x[902] 0
x[903] 0
x[904] 1
x[905] 1
x[906] 0
x[907] 0
x[908] 1
x[909] 0
x[910] 0
x[911] 0
x[912] 1
x[913] 0
x[914] 1
x[915] 0
x[916] 1
x[917] 1
x[918] 0
x[919] 0
x[920] 0
x[921] 0
x[922] 0
x[923] 0
x[924] 0
x[925] 1
x[926] 0
x[927] 0
x[928] 1
x[929] 0
x[930] 0
x[931] 0
x[932] 1
x[933] 0
x[934] 0
x[935] 0
x[936] 0
x[937] 0
x[938] 0
x[939] 0
x[940] 1
x[941] 0
x[942] 1
x[943] 0
x[944] 1
x[945] 0
x[946] 0
x[947] 0
x[948] 0
x[949] 1
x[950] 0
x[951] 1
x[952] 1
x[953] 1
x[954] 0
x[955] 1
x[956] 0
x[957] 1
x[958] 0
x[959] 0
x[960] 1
x[961] 0
x[962] 0
x[963] 0
x[964] 1
x[965] 0
x[966] 0
x[967] 1
x[968] 0
x[969] 0
x[970] 0
x[971] 0
x[972] 1
x[973] 1
x[974] 1
x[975] 0
x[976] 1
x[977] 0
x[978] 1
x[979] 0
x[980] 0
x[981] 1
x[982] 0
x[983] 0
x[984] 1
x[985] 1
x[986] 1
x[987] 1
x[988] 1
x[989] 1
x[990] 1
x[991] 0
x[992] 1
x[993] 1
x[994] 0
x[995] 1
x[996] 0
x[997] 0
x[998] 0
x[999] 0
